p tw 24 36
1 6
1 20
1 24
2 7
2 16
2 23
3 9
3 11
3 20
4 13
4 14
4 18
5 7
5 15
5 17
6 15
6 23
7 10
8 14
8 16
8 18
9 13
9 21
10 12
10 22
11 16
11 18
12 17
12 21
13 20
14 19
15 17
19 22
19 24
21 24
22 23
